; Copyright (c) 2026 The RIINA Authors. All rights reserved.
; Auto-generated from 02_FORMAL/coq/domains/uiux/VisualAccessibility.v (42 validations)
; Generated by scripts/generate-full-stack.py
;
; Translation Validation for VisualAccessibility
; Layer 9: Verifies compiler backend preserves formal semantics.
; Each assertion checks source IR ≡ target code for a proven property.

(set-logic QF_LIA)
(set-option :produce-models true)

; IR node representation
(declare-sort IRNode 0)
(declare-sort TargetNode 0)

; visible: source semantics (matches Coq)
(declare-fun source_visible () Bool)
(declare-fun target_visible () Bool)
(assert (= source_visible target_visible))

; voiceover_accessible: source semantics (matches Coq)
(declare-fun source_voiceover_accessible () Bool)
(declare-fun target_voiceover_accessible () Bool)
(assert (= source_voiceover_accessible target_voiceover_accessible))

; readable: source semantics (matches Coq)
(declare-fun source_readable () Bool)
(declare-fun target_readable () Bool)
(assert (= source_readable target_readable))

; reduce_motion_enabled: source semantics (matches Coq)
(declare-fun source_reduce_motion_enabled () Bool)
(declare-fun target_reduce_motion_enabled () Bool)
(assert (= source_reduce_motion_enabled target_reduce_motion_enabled))

; plays: source semantics (matches Coq)
(declare-fun source_plays () Bool)
(declare-fun target_plays () Bool)
(assert (= source_plays target_plays))

; is_root: source semantics (matches Coq)
(declare-fun source_is_root () Bool)
(declare-fun target_is_root () Bool)
(assert (= source_is_root target_is_root))

; connected_to_root: source semantics (matches Coq)
(declare-fun source_connected_to_root () Bool)
(declare-fun target_connected_to_root () Bool)
(assert (= source_connected_to_root target_connected_to_root))

; element_has_node: source semantics (matches Coq)
(declare-fun source_element_has_node () Bool)
(declare-fun target_element_has_node () Bool)
(assert (= source_element_has_node target_element_has_node))

; well_formed_tree: source semantics (matches Coq)
(declare-fun source_well_formed_tree () Bool)
(declare-fun target_well_formed_tree () Bool)
(assert (= source_well_formed_tree target_well_formed_tree))

; announced: source semantics (matches Coq)
(declare-fun source_announced () Bool)
(declare-fun target_announced () Bool)
(assert (= source_announced target_announced))

; has_noncolor_alternative: source semantics (matches Coq)
(declare-fun source_has_noncolor_alternative () Bool)
(declare-fun target_has_noncolor_alternative () Bool)
(assert (= source_has_noncolor_alternative target_has_noncolor_alternative))

; scaled_font_size: source semantics (matches Coq)
(declare-fun source_scaled_font_size () Bool)
(declare-fun target_scaled_font_size () Bool)
(assert (= source_scaled_font_size target_scaled_font_size))

; scaled_line_height: source semantics (matches Coq)
(declare-fun source_scaled_line_height () Bool)
(declare-fun target_scaled_line_height () Bool)
(assert (= source_scaled_line_height target_scaled_line_height))

; scaled_container_height: source semantics (matches Coq)
(declare-fun source_scaled_container_height () Bool)
(declare-fun target_scaled_container_height () Bool)
(assert (= source_scaled_container_height target_scaled_container_height))

; not_truncated: source semantics (matches Coq)
(declare-fun source_not_truncated () Bool)
(declare-fun target_not_truncated () Bool)
(assert (= source_not_truncated target_not_truncated))

; reflows: source semantics (matches Coq)
(declare-fun source_reflows () Bool)
(declare-fun target_reflows () Bool)
(assert (= source_reflows target_reflows))

; safe_flash_rate: source semantics (matches Coq)
(declare-fun source_safe_flash_rate () Bool)
(declare-fun target_safe_flash_rate () Bool)
(assert (= source_safe_flash_rate target_safe_flash_rate))

; user_controllable: source semantics (matches Coq)
(declare-fun source_user_controllable () Bool)
(declare-fun target_user_controllable () Bool)
(assert (= source_user_controllable target_user_controllable))

; functional_without_animation: source semantics (matches Coq)
(declare-fun source_functional_without_animation () Bool)
(declare-fun target_functional_without_animation () Bool)
(assert (= source_functional_without_animation target_functional_without_animation))

; voiceover_complete_coverage: translation preserves property (matches Coq: Theorem)
(declare-fun source_voiceover_complete_coverage () Bool)
(declare-fun target_voiceover_complete_coverage () Bool)
(assert (= source_voiceover_complete_coverage target_voiceover_complete_coverage))

; dynamic_type_universal: translation preserves property (matches Coq: Theorem)
(declare-fun source_dynamic_type_universal () Bool)
(declare-fun target_dynamic_type_universal () Bool)
(assert (= source_dynamic_type_universal target_dynamic_type_universal))

; reduce_motion_complete: translation preserves property (matches Coq: Theorem)
(declare-fun source_reduce_motion_complete () Bool)
(declare-fun target_reduce_motion_complete () Bool)
(assert (= source_reduce_motion_complete target_reduce_motion_complete))

; visible_decidable: translation preserves property (matches Coq: Lemma)
(declare-fun source_visible_decidable () Bool)
(declare-fun target_visible_decidable () Bool)
(assert (= source_visible_decidable target_visible_decidable))

; voiceover_accessible_decidable: translation preserves property (matches Coq: Lemma)
(declare-fun source_voiceover_accessible_decidable () Bool)
(declare-fun target_voiceover_accessible_decidable () Bool)
(assert (= source_voiceover_accessible_decidable target_voiceover_accessible_decidable))

; dynamic_type_size_decidable: translation preserves property (matches Coq: Lemma)
(declare-fun source_dynamic_type_size_decidable () Bool)
(declare-fun target_dynamic_type_size_decidable () Bool)
(assert (= source_dynamic_type_size_decidable target_dynamic_type_size_decidable))

; readable_at_current_size: translation preserves property (matches Coq: Lemma)
(declare-fun source_readable_at_current_size () Bool)
(declare-fun target_readable_at_current_size () Bool)
(assert (= source_readable_at_current_size target_readable_at_current_size))

; essential_animations_can_play: translation preserves property (matches Coq: Lemma)
(declare-fun source_essential_animations_can_play () Bool)
(declare-fun target_essential_animations_can_play () Bool)
(assert (= source_essential_animations_can_play target_essential_animations_can_play))

; plays_implies_active: translation preserves property (matches Coq: Lemma)
(declare-fun source_plays_implies_active () Bool)
(declare-fun target_plays_implies_active () Bool)
(assert (= source_plays_implies_active target_plays_implies_active))

; plays_implies_nonessential: translation preserves property (matches Coq: Lemma)
(declare-fun source_plays_implies_nonessential () Bool)
(declare-fun target_plays_implies_nonessential () Bool)
(assert (= source_plays_implies_nonessential target_plays_implies_nonessential))

; all_visible_elements_in_tree: translation preserves property (matches Coq: Theorem)
(declare-fun source_all_visible_elements_in_tree () Bool)
(declare-fun target_all_visible_elements_in_tree () Bool)
(assert (= source_all_visible_elements_in_tree target_all_visible_elements_in_tree))

; no_orphan_nodes: translation preserves property (matches Coq: Theorem)
(declare-fun source_no_orphan_nodes () Bool)
(declare-fun target_no_orphan_nodes () Bool)
(assert (= source_no_orphan_nodes target_no_orphan_nodes))

; role_always_set: translation preserves property (matches Coq: Theorem)
(declare-fun source_role_always_set () Bool)
(declare-fun target_role_always_set () Bool)
(assert (= source_role_always_set target_role_always_set))

; label_always_nonempty: translation preserves property (matches Coq: Theorem)
(declare-fun source_label_always_nonempty () Bool)
(declare-fun target_label_always_nonempty () Bool)
(assert (= source_label_always_nonempty target_label_always_nonempty))

; collect_ids_complete: translation preserves property (matches Coq: Lemma)
(declare-fun source_collect_ids_complete () Bool)
(declare-fun target_collect_ids_complete () Bool)
(assert (= source_collect_ids_complete target_collect_ids_complete))

; tree_traversal_complete: translation preserves property (matches Coq: Theorem)
(declare-fun source_tree_traversal_complete () Bool)
(declare-fun target_tree_traversal_complete () Bool)
(assert (= source_tree_traversal_complete target_tree_traversal_complete))

; focus_order_from_interactive: translation preserves property (matches Coq: Lemma)
(declare-fun source_focus_order_from_interactive () Bool)
(declare-fun target_focus_order_from_interactive () Bool)
(assert (= source_focus_order_from_interactive target_focus_order_from_interactive))

; focus_order_matches_tree: translation preserves property (matches Coq: Theorem)
(declare-fun source_focus_order_matches_tree () Bool)
(declare-fun target_focus_order_matches_tree () Bool)
(assert (= source_focus_order_matches_tree target_focus_order_matches_tree))

; live_regions_announced: translation preserves property (matches Coq: Theorem)
(declare-fun source_live_regions_announced () Bool)
(declare-fun target_live_regions_announced () Bool)
(assert (= source_live_regions_announced target_live_regions_announced))

; information_not_color_only: translation preserves property (matches Coq: Theorem)
(declare-fun source_information_not_color_only () Bool)
(declare-fun target_information_not_color_only () Bool)
(assert (= source_information_not_color_only target_information_not_color_only))

; link_not_color_only: translation preserves property (matches Coq: Theorem)
(declare-fun source_link_not_color_only () Bool)
(declare-fun target_link_not_color_only () Bool)
(assert (= source_link_not_color_only target_link_not_color_only))

; error_not_color_only: translation preserves property (matches Coq: Theorem)
(declare-fun source_error_not_color_only () Bool)
(declare-fun target_error_not_color_only () Bool)
(assert (= source_error_not_color_only target_error_not_color_only))

; success_not_color_only: translation preserves property (matches Coq: Theorem)
(declare-fun source_success_not_color_only () Bool)
(declare-fun target_success_not_color_only () Bool)
(assert (= source_success_not_color_only target_success_not_color_only))

; chart_patterns_available: translation preserves property (matches Coq: Theorem)
(declare-fun source_chart_patterns_available () Bool)
(declare-fun target_chart_patterns_available () Bool)
(assert (= source_chart_patterns_available target_chart_patterns_available))

; status_indicators_labeled: translation preserves property (matches Coq: Theorem)
(declare-fun source_status_indicators_labeled () Bool)
(declare-fun target_status_indicators_labeled () Bool)
(assert (= source_status_indicators_labeled target_status_indicators_labeled))

; text_scales_to_200_percent: translation preserves property (matches Coq: Theorem)
(declare-fun source_text_scales_to_200_percent () Bool)
(declare-fun target_text_scales_to_200_percent () Bool)
(assert (= source_text_scales_to_200_percent target_text_scales_to_200_percent))

; no_text_truncation: translation preserves property (matches Coq: Theorem)
(declare-fun source_no_text_truncation () Bool)
(declare-fun target_no_text_truncation () Bool)
(assert (= source_no_text_truncation target_no_text_truncation))

; line_height_proportional: translation preserves property (matches Coq: Theorem)
(declare-fun source_line_height_proportional () Bool)
(declare-fun target_line_height_proportional () Bool)
(assert (= source_line_height_proportional target_line_height_proportional))

; container_expands_with_text: translation preserves property (matches Coq: Theorem)
(declare-fun source_container_expands_with_text () Bool)
(declare-fun target_container_expands_with_text () Bool)
(assert (= source_container_expands_with_text target_container_expands_with_text))

; text_reflow: translation preserves property (matches Coq: Theorem)
(declare-fun source_text_reflow () Bool)
(declare-fun target_text_reflow () Bool)
(assert (= source_text_reflow target_text_reflow))

; minimum_font_size: translation preserves property (matches Coq: Theorem)
(declare-fun source_minimum_font_size () Bool)
(declare-fun target_minimum_font_size () Bool)
(assert (= source_minimum_font_size target_minimum_font_size))

; parallax_disableable: translation preserves property (matches Coq: Theorem)
(declare-fun source_parallax_disableable () Bool)
(declare-fun target_parallax_disableable () Bool)
(assert (= source_parallax_disableable target_parallax_disableable))

; auto_play_disableable: translation preserves property (matches Coq: Theorem)
(declare-fun source_auto_play_disableable () Bool)
(declare-fun target_auto_play_disableable () Bool)
(assert (= source_auto_play_disableable target_auto_play_disableable))

; flash_rate_safe: translation preserves property (matches Coq: Theorem)
(declare-fun source_flash_rate_safe () Bool)
(declare-fun target_flash_rate_safe () Bool)
(assert (= source_flash_rate_safe target_flash_rate_safe))

; carousel_controllable: translation preserves property (matches Coq: Theorem)
(declare-fun source_carousel_controllable () Bool)
(declare-fun target_carousel_controllable () Bool)
(assert (= source_carousel_controllable target_carousel_controllable))

; video_controllable: translation preserves property (matches Coq: Theorem)
(declare-fun source_video_controllable () Bool)
(declare-fun target_video_controllable () Bool)
(assert (= source_video_controllable target_video_controllable))

; animation_not_required: translation preserves property (matches Coq: Theorem)
(declare-fun source_animation_not_required () Bool)
(declare-fun target_animation_not_required () Bool)
(assert (= source_animation_not_required target_animation_not_required))

; color_independence_implies_screen_reader_friendly: translation preserves property (matches Coq: Theorem)
(declare-fun source_color_independence_implies_screen_reader_friendly () Bool)
(declare-fun target_color_independence_implies_screen_reader_friendly () Bool)
(assert (= source_color_independence_implies_screen_reader_friendly target_color_independence_implies_screen_reader_friendly))

; error_signals_doubly_redundant: translation preserves property (matches Coq: Theorem)
(declare-fun source_error_signals_doubly_redundant () Bool)
(declare-fun target_error_signals_doubly_redundant () Bool)
(assert (= source_error_signals_doubly_redundant target_error_signals_doubly_redundant))

; scaled_text_still_reflows: translation preserves property (matches Coq: Theorem)
(declare-fun source_scaled_text_still_reflows () Bool)
(declare-fun target_scaled_text_still_reflows () Bool)
(assert (= source_scaled_text_still_reflows target_scaled_text_still_reflows))

; motion_safe_and_controllable: translation preserves property (matches Coq: Theorem)
(declare-fun source_motion_safe_and_controllable () Bool)
(declare-fun target_motion_safe_and_controllable () Bool)
(assert (= source_motion_safe_and_controllable target_motion_safe_and_controllable))

; interactive_nodes_fully_accessible: translation preserves property (matches Coq: Theorem)
(declare-fun source_interactive_nodes_fully_accessible () Bool)
(declare-fun target_interactive_nodes_fully_accessible () Bool)
(assert (= source_interactive_nodes_fully_accessible target_interactive_nodes_fully_accessible))

; Verify all translation validations are satisfiable
(check-sat)
(exit)
